(set-logic ALL)
(declare-const limit_VAR Int)
(assert (<= 4 limit_VAR))
(assert (<= 6 limit_VAR))
(assert (<= 8 limit_VAR))
(assert (not (> 6 limit_VAR)))
(assert (<= 0 limit_VAR))
(assert (<= 6 limit_VAR))
(assert (not (> 6 limit_VAR)))
(assert (<= 9 limit_VAR))
(assert (<= 12 limit_VAR))
(assert (<= 15 limit_VAR))
(assert (<= 18 limit_VAR))
(assert (<= 21 limit_VAR))
(assert (<= 24 limit_VAR))
(assert (not (> 20 limit_VAR)))
(assert (<= 0 limit_VAR))
(assert (<= 15 limit_VAR))
(assert (not (> 15 limit_VAR)))
(assert (<= 25 limit_VAR))
(assert (<= 30 limit_VAR))
(assert (<= 35 limit_VAR))
(assert (<= 40 limit_VAR))
(assert (<= 45 limit_VAR))
(assert (not (> 42 limit_VAR)))
(assert (<= 0 limit_VAR))
(assert (<= 35 limit_VAR))
(assert (not (> 35 limit_VAR)))
(assert (<= 49 limit_VAR))
(assert (<= 56 limit_VAR))
(assert (<= 63 limit_VAR))
(assert (<= 70 limit_VAR))
(assert (<= 77 limit_VAR))
(assert (<= 84 limit_VAR))
(assert (<= 91 limit_VAR))
(assert (<= 98 limit_VAR))
(assert (<= 105 limit_VAR))
(assert (<= 112 limit_VAR))
(assert (<= 119 limit_VAR))
(assert (not (> 110 limit_VAR)))
(assert (<= 0 limit_VAR))
(assert (<= 77 limit_VAR))
(assert (not (> 77 limit_VAR)))
(assert (<= 121 limit_VAR))
(assert (<= 132 limit_VAR))
(assert (<= 143 limit_VAR))
(assert (<= 154 limit_VAR))
(assert (<= 165 limit_VAR))
(assert (not (> 156 limit_VAR)))
(assert (<= 0 limit_VAR))
(assert (<= 143 limit_VAR))
(assert (not (> 143 limit_VAR)))
(assert (<= 169 limit_VAR))
(assert (<= 182 limit_VAR))
(assert (<= 195 limit_VAR))
(assert (<= 208 limit_VAR))
(assert (<= 221 limit_VAR))
(assert (<= 234 limit_VAR))
(assert (<= 247 limit_VAR))
(assert (<= 260 limit_VAR))
(assert (<= 273 limit_VAR))
(assert (<= 286 limit_VAR))
(assert (not (> 272 limit_VAR)))
(assert (<= 0 limit_VAR))
(assert (<= 221 limit_VAR))
(assert (not (> 221 limit_VAR)))
(assert (<= 289 limit_VAR))
(assert (<= 306 limit_VAR))
(assert (<= 323 limit_VAR))
(assert (<= 340 limit_VAR))
(assert (<= 357 limit_VAR))
(assert (not (> 342 limit_VAR)))
(assert (<= 0 limit_VAR))
(assert (<= 323 limit_VAR))
(assert (not (> 323 limit_VAR)))
(assert (<= 361 limit_VAR))
(assert (<= 380 limit_VAR))
(assert (<= 399 limit_VAR))
(assert (<= 418 limit_VAR))
(assert (<= 437 limit_VAR))
(assert (<= 456 limit_VAR))
(assert (<= 475 limit_VAR))
(assert (<= 494 limit_VAR))
(assert (<= 513 limit_VAR))
(assert (not (> 506 limit_VAR)))
(assert (<= 0 limit_VAR))
(assert (<= 437 limit_VAR))
(assert (not (> 437 limit_VAR)))
(assert (<= 529 limit_VAR))
(assert (<= 552 limit_VAR))
(assert (<= 575 limit_VAR))
(assert (<= 598 limit_VAR))
(assert (<= 621 limit_VAR))
(assert (<= 644 limit_VAR))
(assert (<= 667 limit_VAR))
(assert (<= 690 limit_VAR))
(assert (<= 713 limit_VAR))
(assert (<= 736 limit_VAR))
(assert (<= 759 limit_VAR))
(assert (<= 782 limit_VAR))
(assert (<= 805 limit_VAR))
(assert (<= 828 limit_VAR))
(assert (not (> 812 limit_VAR)))
(assert (<= 0 limit_VAR))
(assert (<= 667 limit_VAR))
(assert (not (> 667 limit_VAR)))
(assert (<= 841 limit_VAR))
(assert (<= 870 limit_VAR))
(assert (<= 899 limit_VAR))
(assert (<= 928 limit_VAR))
(assert (<= 957 limit_VAR))
(assert (not (> 930 limit_VAR)))
(assert (<= 0 limit_VAR))
(assert (<= 899 limit_VAR))
(assert (not (> 899 limit_VAR)))
(assert (<= 961 limit_VAR))
(assert (<= 992 limit_VAR))
(assert (<= 1023 limit_VAR))
(assert (<= 1054 limit_VAR))
(assert (<= 1085 limit_VAR))
(assert (<= 1116 limit_VAR))
(assert (<= 1147 limit_VAR))
(assert (<= 1178 limit_VAR))
(assert (<= 1209 limit_VAR))
(assert (<= 1240 limit_VAR))
(assert (<= 1271 limit_VAR))
(assert (<= 1302 limit_VAR))
(assert (<= 1333 limit_VAR))
(assert (<= 1364 limit_VAR))
(assert (not (> 1332 limit_VAR)))
(assert (<= 0 limit_VAR))
(assert (<= 1147 limit_VAR))
(assert (not (> 1147 limit_VAR)))
(assert (<= 1369 limit_VAR))
(assert (<= 1406 limit_VAR))
(assert (<= 1443 limit_VAR))
(assert (<= 1480 limit_VAR))
(assert (<= 1517 limit_VAR))
(assert (<= 1554 limit_VAR))
(assert (<= 1591 limit_VAR))
(assert (<= 1628 limit_VAR))
(assert (<= 1665 limit_VAR))
(assert (not (> 1640 limit_VAR)))
(assert (<= 0 limit_VAR))
(assert (<= 1517 limit_VAR))
(assert (not (> 1517 limit_VAR)))
(assert (<= 1681 limit_VAR))
(assert (<= 1722 limit_VAR))
(assert (<= 1763 limit_VAR))
(assert (<= 1804 limit_VAR))
(assert (<= 1845 limit_VAR))
(assert (not (> 1806 limit_VAR)))
(assert (<= 0 limit_VAR))
(assert (<= 1763 limit_VAR))
(assert (not (> 1763 limit_VAR)))
(assert (<= 1849 limit_VAR))
(assert (<= 1892 limit_VAR))
(assert (<= 1935 limit_VAR))
(assert (<= 1978 limit_VAR))
(assert (<= 2021 limit_VAR))
(assert (<= 2064 limit_VAR))
(assert (<= 2107 limit_VAR))
(assert (<= 2150 limit_VAR))
(assert (<= 2193 limit_VAR))
(assert (not (> 2162 limit_VAR)))
(assert (<= 0 limit_VAR))
(assert (<= 2021 limit_VAR))
(assert (not (> 2021 limit_VAR)))
(assert (<= 2209 limit_VAR))
(assert (<= 2256 limit_VAR))
(assert (<= 2303 limit_VAR))
(assert (<= 2350 limit_VAR))
(assert (not (<= 2397 limit_VAR)))
(assert (> 2756 limit_VAR))
(assert (> 2703 limit_VAR))
(assert (> 2650 limit_VAR))
(assert (> 2597 limit_VAR))
(assert (> 2544 limit_VAR))
(assert (not (> 2491 limit_VAR)))
(check-sat)
(get-value (limit_VAR))
